
  22   10
  10   10   10   10   10   10   10   10   10   10

   0   0   0   0   0   0   0   0   0   0   0  10 2 3 4 7 10 17 18 19 20 21 
   3  10  10  10  10  10  10  10  10  10  10   3 16 13 5 
   1  10  10  10  10  10  10  10  10  10  10   3 15 13 8 
   8  10  10  10  10  10  10  10  10  10  10   2 14 8 
   4  10  10  10  10  10  10  10  10  10  10   1 6 
   8  10  10  10  10  10  10  10  10  10  10   1 8 
   5  10  10  10  10  10  10  10  10  10  10   1 8 
   6  10  10  10  10  10  10  10  10  10  10   2 12 9 
   4  10  10  10  10  10  10  10  10  10  10   1 11 
   9  10  10  10  10  10  10  10  10  10  10   1 13 
   3  10  10  10  10  10  10  10  10  10  10   1 22
   6  10  10  10  10  10  10  10  10  10  10   1 22
   5  10  10  10  10  10  10  10  10  10  10   1 22
   4  10  10  10  10  10  10  10  10  10  10   1 22
  10  10  10  10  10  10  10  10  10  10  10   1 22
   3  10  10  10  10  10  10  10  10  10  10   1 22
   6  10  10  10  10  10  10  10  10  10  10   1 22
   6  10  10  10  10  10  10  10  10  10  10   1 22
   1  10  10  10  10  10  10  10  10  10  10   1 22
   3  10  10  10  10  10  10  10  10  10  10   1 22
   2  10  10  10  10  10  10  10  10  10  10   1 22
   0   0   0   0   0   0   0   0   0   0   0   0 
